\ This file has been generated by DOcplex
\ ENCODING=ISO-8859-1
\Problem name: Manuver Model

Minimize
 obj: PriceProv1 + PriceProv2 + PriceProv3 + PriceProv4 + PriceProv5
Subject To
 c0_vm_allocated: vm1 = 1 <-> C1_VM1 + C2_VM1 + C3_VM1 + C4_VM1 + C5_VM1 >= 1
 c1_vm_allocated: vm2 = 1 <-> C1_VM2 + C2_VM2 + C3_VM2 + C4_VM2 + C5_VM2 >= 1
 c2_vm_allocated: vm3 = 1 <-> C1_VM3 + C2_VM3 + C3_VM3 + C4_VM3 + C5_VM3 >= 1
 c3_vm_allocated: vm4 = 1 <-> C1_VM4 + C2_VM4 + C3_VM4 + C4_VM4 + C5_VM4 >= 1
 c4_vm_allocated: vm5 = 1 <-> C1_VM5 + C2_VM5 + C3_VM5 + C4_VM5 + C5_VM5 >= 1
 c0_vm_free_price_0: vm1 = 0 -> PriceProv1 = 0
 c1_vm_free_price_0: vm2 = 0 -> PriceProv2 = 0
 c2_vm_free_price_0: vm3 = 0 -> PriceProv3 = 0
 c3_vm_free_price_0: vm4 = 0 -> PriceProv4 = 0
 c4_vm_free_price_0: vm5 = 0 -> PriceProv5 = 0
 c_vm_load_lex_order: C1_VM1 + C2_VM1 + C3_VM1 + C4_VM1 + C5_VM1 - C1_VM2
                      - C2_VM2 - C3_VM2 - C4_VM2 - C5_VM2 >= 0
 lc11: order_VM0_combined = 1 <-> C1_VM1 + C2_VM1 + C3_VM1 + C4_VM1 + C5_VM1
       - C1_VM2 - C2_VM2 - C3_VM2 - C4_VM2 - C5_VM2 = 0
 lc12: order_VM0_combined = 1 -> PriceProv1 - PriceProv2 >= 0
 c_vm_load_lex_order#1: C1_VM2 + C2_VM2 + C3_VM2 + C4_VM2 + C5_VM2 - C1_VM3
                        - C2_VM3 - C3_VM3 - C4_VM3 - C5_VM3 >= 0
 lc13: order_VM1_combined = 1 <-> C1_VM2 + C2_VM2 + C3_VM2 + C4_VM2 + C5_VM2
       - C1_VM3 - C2_VM3 - C3_VM3 - C4_VM3 - C5_VM3 = 0
 lc14: order_VM1_combined = 1 -> PriceProv2 - PriceProv3 >= 0
 c_vm_load_lex_order#2: C1_VM3 + C2_VM3 + C3_VM3 + C4_VM3 + C5_VM3 - C1_VM4
                        - C2_VM4 - C3_VM4 - C4_VM4 - C5_VM4 >= 0
 lc15: order_VM2_combined = 1 <-> C1_VM3 + C2_VM3 + C3_VM3 + C4_VM3 + C5_VM3
       - C1_VM4 - C2_VM4 - C3_VM4 - C4_VM4 - C5_VM4 = 0
 lc16: order_VM2_combined = 1 -> PriceProv3 - PriceProv4 >= 0
 c_vm_load_lex_order#3: C1_VM4 + C2_VM4 + C3_VM4 + C4_VM4 + C5_VM4 - C1_VM5
                        - C2_VM5 - C3_VM5 - C4_VM5 - C5_VM5 >= 0
 lc17: order_VM3_combined = 1 <-> C1_VM4 + C2_VM4 + C3_VM4 + C4_VM4 + C5_VM4
       - C1_VM5 - C2_VM5 - C3_VM5 - C4_VM5 - C5_VM5 = 0
 lc18: order_VM3_combined = 1 -> PriceProv4 - PriceProv5 >= 0
 c_comp_conflict: C1_VM1 + C2_VM1 <= 1
 c_comp_conflict#5: C1_VM1 + C3_VM1 <= 1
 c_comp_conflict#6: C1_VM1 + C4_VM1 <= 1
 c_comp_conflict#7: C1_VM1 + C5_VM1 <= 1
 c_comp_conflict#8: C1_VM2 + C2_VM2 <= 1
 c_comp_conflict#9: C1_VM2 + C3_VM2 <= 1
 c_comp_conflict#10: C1_VM2 + C4_VM2 <= 1
 c_comp_conflict#11: C1_VM2 + C5_VM2 <= 1
 c_comp_conflict#12: C1_VM3 + C2_VM3 <= 1
 c_comp_conflict#13: C1_VM3 + C3_VM3 <= 1
 c_comp_conflict#14: C1_VM3 + C4_VM3 <= 1
 c_comp_conflict#15: C1_VM3 + C5_VM3 <= 1
 c_comp_conflict#16: C1_VM4 + C2_VM4 <= 1
 c_comp_conflict#17: C1_VM4 + C3_VM4 <= 1
 c_comp_conflict#18: C1_VM4 + C4_VM4 <= 1
 c_comp_conflict#19: C1_VM4 + C5_VM4 <= 1
 c_comp_conflict#20: C1_VM5 + C2_VM5 <= 1
 c_comp_conflict#21: C1_VM5 + C3_VM5 <= 1
 c_comp_conflict#22: C1_VM5 + C4_VM5 <= 1
 c_comp_conflict#23: C1_VM5 + C5_VM5 <= 1
 c_comp_conflict#24: C3_VM1 + C5_VM1 <= 1
 c_comp_conflict#25: C4_VM1 + C5_VM1 <= 1
 c_comp_conflict#26: C3_VM2 + C5_VM2 <= 1
 c_comp_conflict#27: C4_VM2 + C5_VM2 <= 1
 c_comp_conflict#28: C3_VM3 + C5_VM3 <= 1
 c_comp_conflict#29: C4_VM3 + C5_VM3 <= 1
 c_comp_conflict#30: C3_VM4 + C5_VM4 <= 1
 c_comp_conflict#31: C4_VM4 + C5_VM4 <= 1
 c_comp_conflict#32: C3_VM5 + C5_VM5 <= 1
 c_comp_conflict#33: C4_VM5 + C5_VM5 <= 1
 c_upper_lower_bound: C1_VM1 + C1_VM2 + C1_VM3 + C1_VM4 + C1_VM5 = 1
 c_upper_lower_bound#35: C5_VM1 + C5_VM2 + C5_VM3 + C5_VM4 + C5_VM5 = 1
 c_upper_lower_bound#36: C1_VM1 + C1_VM2 + C1_VM3 + C1_VM4 + C1_VM5 >= 1
 c_upper_lower_bound#37: C2_VM1 + C2_VM2 + C2_VM3 + C2_VM4 + C2_VM5 >= 1
 c_upper_lower_bound#38: C3_VM1 + C3_VM2 + C3_VM3 + C3_VM4 + C3_VM5 >= 1
 c_upper_lower_bound#39: C4_VM1 + C4_VM2 + C4_VM3 + C4_VM4 + C4_VM5 >= 1
 c_upper_lower_bound#40: C5_VM1 + C5_VM2 + C5_VM3 + C5_VM4 + C5_VM5 >= 1
 c_hard_cpu: 4 C1_VM1 + 2 C2_VM1 + 4 C3_VM1 + 2 C4_VM1 + 4 C5_VM1 - ProcProv1
              <= 0
 c_hard_mem: 4096 C1_VM1 + 2048 C2_VM1 + 4096 C3_VM1 + 512 C4_VM1 + 2048 C5_VM1
             - MemProv1 <= 0
 c_hard_storage: 1024 C1_VM1 + 512 C2_VM1 + 512 C3_VM1 + 2000 C4_VM1
                 + 500 C5_VM1 - StorageProv1 <= 0
 c_hard_cpu#44: 4 C1_VM2 + 2 C2_VM2 + 4 C3_VM2 + 2 C4_VM2 + 4 C5_VM2 - ProcProv2
                 <= 0
 c_hard_mem#45: 4096 C1_VM2 + 2048 C2_VM2 + 4096 C3_VM2 + 512 C4_VM2
                + 2048 C5_VM2 - MemProv2 <= 0
 c_hard_storage#46: 1024 C1_VM2 + 512 C2_VM2 + 512 C3_VM2 + 2000 C4_VM2
                    + 500 C5_VM2 - StorageProv2 <= 0
 c_hard_cpu#47: 4 C1_VM3 + 2 C2_VM3 + 4 C3_VM3 + 2 C4_VM3 + 4 C5_VM3 - ProcProv3
                 <= 0
 c_hard_mem#48: 4096 C1_VM3 + 2048 C2_VM3 + 4096 C3_VM3 + 512 C4_VM3
                + 2048 C5_VM3 - MemProv3 <= 0
 c_hard_storage#49: 1024 C1_VM3 + 512 C2_VM3 + 512 C3_VM3 + 2000 C4_VM3
                    + 500 C5_VM3 - StorageProv3 <= 0
 c_hard_cpu#50: 4 C1_VM4 + 2 C2_VM4 + 4 C3_VM4 + 2 C4_VM4 + 4 C5_VM4 - ProcProv4
                 <= 0
 c_hard_mem#51: 4096 C1_VM4 + 2048 C2_VM4 + 4096 C3_VM4 + 512 C4_VM4
                + 2048 C5_VM4 - MemProv4 <= 0
 c_hard_storage#52: 1024 C1_VM4 + 512 C2_VM4 + 512 C3_VM4 + 2000 C4_VM4
                    + 500 C5_VM4 - StorageProv4 <= 0
 c_hard_cpu#53: 4 C1_VM5 + 2 C2_VM5 + 4 C3_VM5 + 2 C4_VM5 + 4 C5_VM5 - ProcProv5
                 <= 0
 c_hard_mem#54: 4096 C1_VM5 + 2048 C2_VM5 + 4096 C3_VM5 + 512 C4_VM5
                + 2048 C5_VM5 - MemProv5 <= 0
 c_hard_storage#55: 1024 C1_VM5 + 512 C2_VM5 + 512 C3_VM5 + 2000 C4_VM5
                    + 500 C5_VM5 - StorageProv5 <= 0
 lc19: aux_hard1 = 1 <-> vmType1 = 1
 c_order_vm_price: aux_hard1 = 1 -> PriceProv1 = 8403
 c_order_vm_cpu: aux_hard1 = 1 -> ProcProv1 = 64
 c_order_vm_memory: aux_hard1 = 1 -> MemProv1 = 976000
 c_order_vm_storage: aux_hard1 = 1 -> StorageProv1 = 1000
 lc24: aux_hard2 = 1 <-> vmType1 = 2
 c_order_vm_price#24: aux_hard2 = 1 -> PriceProv1 = 9152
 c_order_vm_cpu#25: aux_hard2 = 1 -> ProcProv1 = 64
 c_order_vm_memory#26: aux_hard2 = 1 -> MemProv1 = 488000
 c_order_vm_storage#27: aux_hard2 = 1 -> StorageProv1 = 8000
 lc29: aux_hard3 = 1 <-> vmType1 = 3
 c_order_vm_price#29: aux_hard3 = 1 -> PriceProv1 = 16000
 c_order_vm_cpu#30: aux_hard3 = 1 -> ProcProv1 = 64
 c_order_vm_memory#31: aux_hard3 = 1 -> MemProv1 = 1952
 c_order_vm_storage#32: aux_hard3 = 1 -> StorageProv1 = 1000
 lc34: aux_hard4 = 1 <-> vmType1 = 4
 c_order_vm_price#34: aux_hard4 = 1 -> PriceProv1 = 4105
 c_order_vm_cpu#35: aux_hard4 = 1 -> ProcProv1 = 32
 c_order_vm_memory#36: aux_hard4 = 1 -> MemProv1 = 244000
 c_order_vm_storage#37: aux_hard4 = 1 -> StorageProv1 = 2000
 lc39: aux_hard5 = 1 <-> vmType1 = 5
 c_order_vm_price#39: aux_hard5 = 1 -> PriceProv1 = 4576
 c_order_vm_cpu#40: aux_hard5 = 1 -> ProcProv1 = 32
 c_order_vm_memory#41: aux_hard5 = 1 -> MemProv1 = 244000
 c_order_vm_storage#42: aux_hard5 = 1 -> StorageProv1 = 4000
 lc44: aux_hard6 = 1 <-> vmType1 = 6
 c_order_vm_price#44: aux_hard6 = 1 -> PriceProv1 = 1373
 c_order_vm_cpu#45: aux_hard6 = 1 -> ProcProv1 = 16
 c_order_vm_memory#46: aux_hard6 = 1 -> MemProv1 = 122000
 c_order_vm_storage#47: aux_hard6 = 1 -> StorageProv1 = 2000
 lc49: aux_hard7 = 1 <-> vmType1 = 7
 c_order_vm_price#49: aux_hard7 = 1 -> PriceProv1 = 1430
 c_order_vm_cpu#50: aux_hard7 = 1 -> ProcProv1 = 16
 c_order_vm_memory#51: aux_hard7 = 1 -> MemProv1 = 30000
 c_order_vm_storage#52: aux_hard7 = 1 -> StorageProv1 = 2000
 lc54: aux_hard8 = 1 <-> vmType1 = 8
 c_order_vm_price#54: aux_hard8 = 1 -> PriceProv1 = 5400
 c_order_vm_cpu#55: aux_hard8 = 1 -> ProcProv1 = 17
 c_order_vm_memory#56: aux_hard8 = 1 -> MemProv1 = 117000
 c_order_vm_storage#57: aux_hard8 = 1 -> StorageProv1 = 24000
 lc59: aux_hard9 = 1 <-> vmType1 = 9
 c_order_vm_price#59: aux_hard9 = 1 -> PriceProv1 = 3079
 c_order_vm_cpu#60: aux_hard9 = 1 -> ProcProv1 = 16
 c_order_vm_memory#61: aux_hard9 = 1 -> MemProv1 = 122000
 c_order_vm_storage#62: aux_hard9 = 1 -> StorageProv1 = 1000
 lc64: aux_hard10 = 1 <-> vmType1 = 10
 c_order_vm_price#64: aux_hard10 = 1 -> PriceProv1 = 1470
 c_order_vm_cpu#65: aux_hard10 = 1 -> ProcProv1 = 8
 c_order_vm_memory#66: aux_hard10 = 1 -> MemProv1 = 61000
 c_order_vm_storage#67: aux_hard10 = 1 -> StorageProv1 = 6000
 lc69: aux_hard11 = 1 <-> vmType1 = 11
 c_order_vm_price#69: aux_hard11 = 1 -> PriceProv1 = 1301
 c_order_vm_cpu#70: aux_hard11 = 1 -> ProcProv1 = 8
 c_order_vm_memory#71: aux_hard11 = 1 -> MemProv1 = 68400
 c_order_vm_storage#72: aux_hard11 = 1 -> StorageProv1 = 2000
 lc74: aux_hard12 = 1 <-> vmType1 = 12
 c_order_vm_price#74: aux_hard12 = 1 -> PriceProv1 = 1288
 c_order_vm_cpu#75: aux_hard12 = 1 -> ProcProv1 = 8
 c_order_vm_memory#76: aux_hard12 = 1 -> MemProv1 = 68400
 c_order_vm_storage#77: aux_hard12 = 1 -> StorageProv1 = 2000
 lc79: aux_hard13 = 1 <-> vmType1 = 13
 c_order_vm_price#79: aux_hard13 = 1 -> PriceProv1 = 402
 c_order_vm_cpu#80: aux_hard13 = 1 -> ProcProv1 = 4
 c_order_vm_memory#81: aux_hard13 = 1 -> MemProv1 = 15000
 c_order_vm_storage#82: aux_hard13 = 1 -> StorageProv1 = 2000
 lc84: aux_hard14 = 1 <-> vmType1 = 14
 c_order_vm_price#84: aux_hard14 = 1 -> PriceProv1 = 827
 c_order_vm_cpu#85: aux_hard14 = 1 -> ProcProv1 = 4
 c_order_vm_memory#86: aux_hard14 = 1 -> MemProv1 = 30500
 c_order_vm_storage#87: aux_hard14 = 1 -> StorageProv1 = 3000
 lc89: aux_hard15 = 1 <-> vmType1 = 15
 c_order_vm_price#89: aux_hard15 = 1 -> PriceProv1 = 379
 c_order_vm_cpu#90: aux_hard15 = 1 -> ProcProv1 = 4
 c_order_vm_memory#91: aux_hard15 = 1 -> MemProv1 = 30500
 c_order_vm_storage#92: aux_hard15 = 1 -> StorageProv1 = 1000
 lc94: aux_hard16 = 1 <-> vmType1 = 16
 c_order_vm_price#94: aux_hard16 = 1 -> PriceProv1 = 146
 c_order_vm_cpu#95: aux_hard16 = 1 -> ProcProv1 = 2
 c_order_vm_memory#96: aux_hard16 = 1 -> MemProv1 = 7500
 c_order_vm_storage#97: aux_hard16 = 1 -> StorageProv1 = 1000
 lc99: aux_hard17 = 1 <-> vmType1 = 17
 c_order_vm_price#99: aux_hard17 = 1 -> PriceProv1 = 128
 c_order_vm_cpu#100: aux_hard17 = 1 -> ProcProv1 = 2
 c_order_vm_memory#101: aux_hard17 = 1 -> MemProv1 = 3750
 c_order_vm_storage#102: aux_hard17 = 1 -> StorageProv1 = 2000
 lc104: aux_hard18 = 1 <-> vmType1 = 18
 c_order_vm_price#104: aux_hard18 = 1 -> PriceProv1 = 58
 c_order_vm_cpu#105: aux_hard18 = 1 -> ProcProv1 = 1
 c_order_vm_memory#106: aux_hard18 = 1 -> MemProv1 = 1700
 c_order_vm_storage#107: aux_hard18 = 1 -> StorageProv1 = 1000
 lc109: aux_hard19 = 1 <-> vmType1 = 19
 c_order_vm_price#109: aux_hard19 = 1 -> PriceProv1 = 93
 c_order_vm_cpu#110: aux_hard19 = 1 -> ProcProv1 = 1
 c_order_vm_memory#111: aux_hard19 = 1 -> MemProv1 = 3750
 c_order_vm_storage#112: aux_hard19 = 1 -> StorageProv1 = 1000
 lc114: aux_hard20 = 1 <-> vmType1 = 20
 c_order_vm_price#114: aux_hard20 = 1 -> PriceProv1 = 98
 c_order_vm_cpu#115: aux_hard20 = 1 -> ProcProv1 = 1
 c_order_vm_memory#116: aux_hard20 = 1 -> MemProv1 = 3750
 c_order_vm_storage#117: aux_hard20 = 1 -> StorageProv1 = 1000
 lc119: vm1 = 1 -> vmType1 >= 1
 lc120: aux_hard21 = 1 <-> vmType2 = 1
 c_order_vm_price#120: aux_hard21 = 1 -> PriceProv2 = 8403
 c_order_vm_cpu#121: aux_hard21 = 1 -> ProcProv2 = 64
 c_order_vm_memory#122: aux_hard21 = 1 -> MemProv2 = 976000
 c_order_vm_storage#123: aux_hard21 = 1 -> StorageProv2 = 1000
 lc125: aux_hard22 = 1 <-> vmType2 = 2
 c_order_vm_price#125: aux_hard22 = 1 -> PriceProv2 = 9152
 c_order_vm_cpu#126: aux_hard22 = 1 -> ProcProv2 = 64
 c_order_vm_memory#127: aux_hard22 = 1 -> MemProv2 = 488000
 c_order_vm_storage#128: aux_hard22 = 1 -> StorageProv2 = 8000
 lc130: aux_hard23 = 1 <-> vmType2 = 3
 c_order_vm_price#130: aux_hard23 = 1 -> PriceProv2 = 16000
 c_order_vm_cpu#131: aux_hard23 = 1 -> ProcProv2 = 64
 c_order_vm_memory#132: aux_hard23 = 1 -> MemProv2 = 1952
 c_order_vm_storage#133: aux_hard23 = 1 -> StorageProv2 = 1000
 lc135: aux_hard24 = 1 <-> vmType2 = 4
 c_order_vm_price#135: aux_hard24 = 1 -> PriceProv2 = 4105
 c_order_vm_cpu#136: aux_hard24 = 1 -> ProcProv2 = 32
 c_order_vm_memory#137: aux_hard24 = 1 -> MemProv2 = 244000
 c_order_vm_storage#138: aux_hard24 = 1 -> StorageProv2 = 2000
 lc140: aux_hard25 = 1 <-> vmType2 = 5
 c_order_vm_price#140: aux_hard25 = 1 -> PriceProv2 = 4576
 c_order_vm_cpu#141: aux_hard25 = 1 -> ProcProv2 = 32
 c_order_vm_memory#142: aux_hard25 = 1 -> MemProv2 = 244000
 c_order_vm_storage#143: aux_hard25 = 1 -> StorageProv2 = 4000
 lc145: aux_hard26 = 1 <-> vmType2 = 6
 c_order_vm_price#145: aux_hard26 = 1 -> PriceProv2 = 1373
 c_order_vm_cpu#146: aux_hard26 = 1 -> ProcProv2 = 16
 c_order_vm_memory#147: aux_hard26 = 1 -> MemProv2 = 122000
 c_order_vm_storage#148: aux_hard26 = 1 -> StorageProv2 = 2000
 lc150: aux_hard27 = 1 <-> vmType2 = 7
 c_order_vm_price#150: aux_hard27 = 1 -> PriceProv2 = 1430
 c_order_vm_cpu#151: aux_hard27 = 1 -> ProcProv2 = 16
 c_order_vm_memory#152: aux_hard27 = 1 -> MemProv2 = 30000
 c_order_vm_storage#153: aux_hard27 = 1 -> StorageProv2 = 2000
 lc155: aux_hard28 = 1 <-> vmType2 = 8
 c_order_vm_price#155: aux_hard28 = 1 -> PriceProv2 = 5400
 c_order_vm_cpu#156: aux_hard28 = 1 -> ProcProv2 = 17
 c_order_vm_memory#157: aux_hard28 = 1 -> MemProv2 = 117000
 c_order_vm_storage#158: aux_hard28 = 1 -> StorageProv2 = 24000
 lc160: aux_hard29 = 1 <-> vmType2 = 9
 c_order_vm_price#160: aux_hard29 = 1 -> PriceProv2 = 3079
 c_order_vm_cpu#161: aux_hard29 = 1 -> ProcProv2 = 16
 c_order_vm_memory#162: aux_hard29 = 1 -> MemProv2 = 122000
 c_order_vm_storage#163: aux_hard29 = 1 -> StorageProv2 = 1000
 lc165: aux_hard30 = 1 <-> vmType2 = 10
 c_order_vm_price#165: aux_hard30 = 1 -> PriceProv2 = 1470
 c_order_vm_cpu#166: aux_hard30 = 1 -> ProcProv2 = 8
 c_order_vm_memory#167: aux_hard30 = 1 -> MemProv2 = 61000
 c_order_vm_storage#168: aux_hard30 = 1 -> StorageProv2 = 6000
 lc170: aux_hard31 = 1 <-> vmType2 = 11
 c_order_vm_price#170: aux_hard31 = 1 -> PriceProv2 = 1301
 c_order_vm_cpu#171: aux_hard31 = 1 -> ProcProv2 = 8
 c_order_vm_memory#172: aux_hard31 = 1 -> MemProv2 = 68400
 c_order_vm_storage#173: aux_hard31 = 1 -> StorageProv2 = 2000
 lc175: aux_hard32 = 1 <-> vmType2 = 12
 c_order_vm_price#175: aux_hard32 = 1 -> PriceProv2 = 1288
 c_order_vm_cpu#176: aux_hard32 = 1 -> ProcProv2 = 8
 c_order_vm_memory#177: aux_hard32 = 1 -> MemProv2 = 68400
 c_order_vm_storage#178: aux_hard32 = 1 -> StorageProv2 = 2000
 lc180: aux_hard33 = 1 <-> vmType2 = 13
 c_order_vm_price#180: aux_hard33 = 1 -> PriceProv2 = 402
 c_order_vm_cpu#181: aux_hard33 = 1 -> ProcProv2 = 4
 c_order_vm_memory#182: aux_hard33 = 1 -> MemProv2 = 15000
 c_order_vm_storage#183: aux_hard33 = 1 -> StorageProv2 = 2000
 lc185: aux_hard34 = 1 <-> vmType2 = 14
 c_order_vm_price#185: aux_hard34 = 1 -> PriceProv2 = 827
 c_order_vm_cpu#186: aux_hard34 = 1 -> ProcProv2 = 4
 c_order_vm_memory#187: aux_hard34 = 1 -> MemProv2 = 30500
 c_order_vm_storage#188: aux_hard34 = 1 -> StorageProv2 = 3000
 lc190: aux_hard35 = 1 <-> vmType2 = 15
 c_order_vm_price#190: aux_hard35 = 1 -> PriceProv2 = 379
 c_order_vm_cpu#191: aux_hard35 = 1 -> ProcProv2 = 4
 c_order_vm_memory#192: aux_hard35 = 1 -> MemProv2 = 30500
 c_order_vm_storage#193: aux_hard35 = 1 -> StorageProv2 = 1000
 lc195: aux_hard36 = 1 <-> vmType2 = 16
 c_order_vm_price#195: aux_hard36 = 1 -> PriceProv2 = 146
 c_order_vm_cpu#196: aux_hard36 = 1 -> ProcProv2 = 2
 c_order_vm_memory#197: aux_hard36 = 1 -> MemProv2 = 7500
 c_order_vm_storage#198: aux_hard36 = 1 -> StorageProv2 = 1000
 lc200: aux_hard37 = 1 <-> vmType2 = 17
 c_order_vm_price#200: aux_hard37 = 1 -> PriceProv2 = 128
 c_order_vm_cpu#201: aux_hard37 = 1 -> ProcProv2 = 2
 c_order_vm_memory#202: aux_hard37 = 1 -> MemProv2 = 3750
 c_order_vm_storage#203: aux_hard37 = 1 -> StorageProv2 = 2000
 lc205: aux_hard38 = 1 <-> vmType2 = 18
 c_order_vm_price#205: aux_hard38 = 1 -> PriceProv2 = 58
 c_order_vm_cpu#206: aux_hard38 = 1 -> ProcProv2 = 1
 c_order_vm_memory#207: aux_hard38 = 1 -> MemProv2 = 1700
 c_order_vm_storage#208: aux_hard38 = 1 -> StorageProv2 = 1000
 lc210: aux_hard39 = 1 <-> vmType2 = 19
 c_order_vm_price#210: aux_hard39 = 1 -> PriceProv2 = 93
 c_order_vm_cpu#211: aux_hard39 = 1 -> ProcProv2 = 1
 c_order_vm_memory#212: aux_hard39 = 1 -> MemProv2 = 3750
 c_order_vm_storage#213: aux_hard39 = 1 -> StorageProv2 = 1000
 lc215: aux_hard40 = 1 <-> vmType2 = 20
 c_order_vm_price#215: aux_hard40 = 1 -> PriceProv2 = 98
 c_order_vm_cpu#216: aux_hard40 = 1 -> ProcProv2 = 1
 c_order_vm_memory#217: aux_hard40 = 1 -> MemProv2 = 3750
 c_order_vm_storage#218: aux_hard40 = 1 -> StorageProv2 = 1000
 lc220: vm2 = 1 -> vmType2 >= 1
 lc221: aux_hard41 = 1 <-> vmType3 = 1
 c_order_vm_price#221: aux_hard41 = 1 -> PriceProv3 = 8403
 c_order_vm_cpu#222: aux_hard41 = 1 -> ProcProv3 = 64
 c_order_vm_memory#223: aux_hard41 = 1 -> MemProv3 = 976000
 c_order_vm_storage#224: aux_hard41 = 1 -> StorageProv3 = 1000
 lc226: aux_hard42 = 1 <-> vmType3 = 2
 c_order_vm_price#226: aux_hard42 = 1 -> PriceProv3 = 9152
 c_order_vm_cpu#227: aux_hard42 = 1 -> ProcProv3 = 64
 c_order_vm_memory#228: aux_hard42 = 1 -> MemProv3 = 488000
 c_order_vm_storage#229: aux_hard42 = 1 -> StorageProv3 = 8000
 lc231: aux_hard43 = 1 <-> vmType3 = 3
 c_order_vm_price#231: aux_hard43 = 1 -> PriceProv3 = 16000
 c_order_vm_cpu#232: aux_hard43 = 1 -> ProcProv3 = 64
 c_order_vm_memory#233: aux_hard43 = 1 -> MemProv3 = 1952
 c_order_vm_storage#234: aux_hard43 = 1 -> StorageProv3 = 1000
 lc236: aux_hard44 = 1 <-> vmType3 = 4
 c_order_vm_price#236: aux_hard44 = 1 -> PriceProv3 = 4105
 c_order_vm_cpu#237: aux_hard44 = 1 -> ProcProv3 = 32
 c_order_vm_memory#238: aux_hard44 = 1 -> MemProv3 = 244000
 c_order_vm_storage#239: aux_hard44 = 1 -> StorageProv3 = 2000
 lc241: aux_hard45 = 1 <-> vmType3 = 5
 c_order_vm_price#241: aux_hard45 = 1 -> PriceProv3 = 4576
 c_order_vm_cpu#242: aux_hard45 = 1 -> ProcProv3 = 32
 c_order_vm_memory#243: aux_hard45 = 1 -> MemProv3 = 244000
 c_order_vm_storage#244: aux_hard45 = 1 -> StorageProv3 = 4000
 lc246: aux_hard46 = 1 <-> vmType3 = 6
 c_order_vm_price#246: aux_hard46 = 1 -> PriceProv3 = 1373
 c_order_vm_cpu#247: aux_hard46 = 1 -> ProcProv3 = 16
 c_order_vm_memory#248: aux_hard46 = 1 -> MemProv3 = 122000
 c_order_vm_storage#249: aux_hard46 = 1 -> StorageProv3 = 2000
 lc251: aux_hard47 = 1 <-> vmType3 = 7
 c_order_vm_price#251: aux_hard47 = 1 -> PriceProv3 = 1430
 c_order_vm_cpu#252: aux_hard47 = 1 -> ProcProv3 = 16
 c_order_vm_memory#253: aux_hard47 = 1 -> MemProv3 = 30000
 c_order_vm_storage#254: aux_hard47 = 1 -> StorageProv3 = 2000
 lc256: aux_hard48 = 1 <-> vmType3 = 8
 c_order_vm_price#256: aux_hard48 = 1 -> PriceProv3 = 5400
 c_order_vm_cpu#257: aux_hard48 = 1 -> ProcProv3 = 17
 c_order_vm_memory#258: aux_hard48 = 1 -> MemProv3 = 117000
 c_order_vm_storage#259: aux_hard48 = 1 -> StorageProv3 = 24000
 lc261: aux_hard49 = 1 <-> vmType3 = 9
 c_order_vm_price#261: aux_hard49 = 1 -> PriceProv3 = 3079
 c_order_vm_cpu#262: aux_hard49 = 1 -> ProcProv3 = 16
 c_order_vm_memory#263: aux_hard49 = 1 -> MemProv3 = 122000
 c_order_vm_storage#264: aux_hard49 = 1 -> StorageProv3 = 1000
 lc266: aux_hard50 = 1 <-> vmType3 = 10
 c_order_vm_price#266: aux_hard50 = 1 -> PriceProv3 = 1470
 c_order_vm_cpu#267: aux_hard50 = 1 -> ProcProv3 = 8
 c_order_vm_memory#268: aux_hard50 = 1 -> MemProv3 = 61000
 c_order_vm_storage#269: aux_hard50 = 1 -> StorageProv3 = 6000
 lc271: aux_hard51 = 1 <-> vmType3 = 11
 c_order_vm_price#271: aux_hard51 = 1 -> PriceProv3 = 1301
 c_order_vm_cpu#272: aux_hard51 = 1 -> ProcProv3 = 8
 c_order_vm_memory#273: aux_hard51 = 1 -> MemProv3 = 68400
 c_order_vm_storage#274: aux_hard51 = 1 -> StorageProv3 = 2000
 lc276: aux_hard52 = 1 <-> vmType3 = 12
 c_order_vm_price#276: aux_hard52 = 1 -> PriceProv3 = 1288
 c_order_vm_cpu#277: aux_hard52 = 1 -> ProcProv3 = 8
 c_order_vm_memory#278: aux_hard52 = 1 -> MemProv3 = 68400
 c_order_vm_storage#279: aux_hard52 = 1 -> StorageProv3 = 2000
 lc281: aux_hard53 = 1 <-> vmType3 = 13
 c_order_vm_price#281: aux_hard53 = 1 -> PriceProv3 = 402
 c_order_vm_cpu#282: aux_hard53 = 1 -> ProcProv3 = 4
 c_order_vm_memory#283: aux_hard53 = 1 -> MemProv3 = 15000
 c_order_vm_storage#284: aux_hard53 = 1 -> StorageProv3 = 2000
 lc286: aux_hard54 = 1 <-> vmType3 = 14
 c_order_vm_price#286: aux_hard54 = 1 -> PriceProv3 = 827
 c_order_vm_cpu#287: aux_hard54 = 1 -> ProcProv3 = 4
 c_order_vm_memory#288: aux_hard54 = 1 -> MemProv3 = 30500
 c_order_vm_storage#289: aux_hard54 = 1 -> StorageProv3 = 3000
 lc291: aux_hard55 = 1 <-> vmType3 = 15
 c_order_vm_price#291: aux_hard55 = 1 -> PriceProv3 = 379
 c_order_vm_cpu#292: aux_hard55 = 1 -> ProcProv3 = 4
 c_order_vm_memory#293: aux_hard55 = 1 -> MemProv3 = 30500
 c_order_vm_storage#294: aux_hard55 = 1 -> StorageProv3 = 1000
 lc296: aux_hard56 = 1 <-> vmType3 = 16
 c_order_vm_price#296: aux_hard56 = 1 -> PriceProv3 = 146
 c_order_vm_cpu#297: aux_hard56 = 1 -> ProcProv3 = 2
 c_order_vm_memory#298: aux_hard56 = 1 -> MemProv3 = 7500
 c_order_vm_storage#299: aux_hard56 = 1 -> StorageProv3 = 1000
 lc301: aux_hard57 = 1 <-> vmType3 = 17
 c_order_vm_price#301: aux_hard57 = 1 -> PriceProv3 = 128
 c_order_vm_cpu#302: aux_hard57 = 1 -> ProcProv3 = 2
 c_order_vm_memory#303: aux_hard57 = 1 -> MemProv3 = 3750
 c_order_vm_storage#304: aux_hard57 = 1 -> StorageProv3 = 2000
 lc306: aux_hard58 = 1 <-> vmType3 = 18
 c_order_vm_price#306: aux_hard58 = 1 -> PriceProv3 = 58
 c_order_vm_cpu#307: aux_hard58 = 1 -> ProcProv3 = 1
 c_order_vm_memory#308: aux_hard58 = 1 -> MemProv3 = 1700
 c_order_vm_storage#309: aux_hard58 = 1 -> StorageProv3 = 1000
 lc311: aux_hard59 = 1 <-> vmType3 = 19
 c_order_vm_price#311: aux_hard59 = 1 -> PriceProv3 = 93
 c_order_vm_cpu#312: aux_hard59 = 1 -> ProcProv3 = 1
 c_order_vm_memory#313: aux_hard59 = 1 -> MemProv3 = 3750
 c_order_vm_storage#314: aux_hard59 = 1 -> StorageProv3 = 1000
 lc316: aux_hard60 = 1 <-> vmType3 = 20
 c_order_vm_price#316: aux_hard60 = 1 -> PriceProv3 = 98
 c_order_vm_cpu#317: aux_hard60 = 1 -> ProcProv3 = 1
 c_order_vm_memory#318: aux_hard60 = 1 -> MemProv3 = 3750
 c_order_vm_storage#319: aux_hard60 = 1 -> StorageProv3 = 1000
 lc321: vm3 = 1 -> vmType3 >= 1
 lc322: aux_hard61 = 1 <-> vmType4 = 1
 c_order_vm_price#322: aux_hard61 = 1 -> PriceProv4 = 8403
 c_order_vm_cpu#323: aux_hard61 = 1 -> ProcProv4 = 64
 c_order_vm_memory#324: aux_hard61 = 1 -> MemProv4 = 976000
 c_order_vm_storage#325: aux_hard61 = 1 -> StorageProv4 = 1000
 lc327: aux_hard62 = 1 <-> vmType4 = 2
 c_order_vm_price#327: aux_hard62 = 1 -> PriceProv4 = 9152
 c_order_vm_cpu#328: aux_hard62 = 1 -> ProcProv4 = 64
 c_order_vm_memory#329: aux_hard62 = 1 -> MemProv4 = 488000
 c_order_vm_storage#330: aux_hard62 = 1 -> StorageProv4 = 8000
 lc332: aux_hard63 = 1 <-> vmType4 = 3
 c_order_vm_price#332: aux_hard63 = 1 -> PriceProv4 = 16000
 c_order_vm_cpu#333: aux_hard63 = 1 -> ProcProv4 = 64
 c_order_vm_memory#334: aux_hard63 = 1 -> MemProv4 = 1952
 c_order_vm_storage#335: aux_hard63 = 1 -> StorageProv4 = 1000
 lc337: aux_hard64 = 1 <-> vmType4 = 4
 c_order_vm_price#337: aux_hard64 = 1 -> PriceProv4 = 4105
 c_order_vm_cpu#338: aux_hard64 = 1 -> ProcProv4 = 32
 c_order_vm_memory#339: aux_hard64 = 1 -> MemProv4 = 244000
 c_order_vm_storage#340: aux_hard64 = 1 -> StorageProv4 = 2000
 lc342: aux_hard65 = 1 <-> vmType4 = 5
 c_order_vm_price#342: aux_hard65 = 1 -> PriceProv4 = 4576
 c_order_vm_cpu#343: aux_hard65 = 1 -> ProcProv4 = 32
 c_order_vm_memory#344: aux_hard65 = 1 -> MemProv4 = 244000
 c_order_vm_storage#345: aux_hard65 = 1 -> StorageProv4 = 4000
 lc347: aux_hard66 = 1 <-> vmType4 = 6
 c_order_vm_price#347: aux_hard66 = 1 -> PriceProv4 = 1373
 c_order_vm_cpu#348: aux_hard66 = 1 -> ProcProv4 = 16
 c_order_vm_memory#349: aux_hard66 = 1 -> MemProv4 = 122000
 c_order_vm_storage#350: aux_hard66 = 1 -> StorageProv4 = 2000
 lc352: aux_hard67 = 1 <-> vmType4 = 7
 c_order_vm_price#352: aux_hard67 = 1 -> PriceProv4 = 1430
 c_order_vm_cpu#353: aux_hard67 = 1 -> ProcProv4 = 16
 c_order_vm_memory#354: aux_hard67 = 1 -> MemProv4 = 30000
 c_order_vm_storage#355: aux_hard67 = 1 -> StorageProv4 = 2000
 lc357: aux_hard68 = 1 <-> vmType4 = 8
 c_order_vm_price#357: aux_hard68 = 1 -> PriceProv4 = 5400
 c_order_vm_cpu#358: aux_hard68 = 1 -> ProcProv4 = 17
 c_order_vm_memory#359: aux_hard68 = 1 -> MemProv4 = 117000
 c_order_vm_storage#360: aux_hard68 = 1 -> StorageProv4 = 24000
 lc362: aux_hard69 = 1 <-> vmType4 = 9
 c_order_vm_price#362: aux_hard69 = 1 -> PriceProv4 = 3079
 c_order_vm_cpu#363: aux_hard69 = 1 -> ProcProv4 = 16
 c_order_vm_memory#364: aux_hard69 = 1 -> MemProv4 = 122000
 c_order_vm_storage#365: aux_hard69 = 1 -> StorageProv4 = 1000
 lc367: aux_hard70 = 1 <-> vmType4 = 10
 c_order_vm_price#367: aux_hard70 = 1 -> PriceProv4 = 1470
 c_order_vm_cpu#368: aux_hard70 = 1 -> ProcProv4 = 8
 c_order_vm_memory#369: aux_hard70 = 1 -> MemProv4 = 61000
 c_order_vm_storage#370: aux_hard70 = 1 -> StorageProv4 = 6000
 lc372: aux_hard71 = 1 <-> vmType4 = 11
 c_order_vm_price#372: aux_hard71 = 1 -> PriceProv4 = 1301
 c_order_vm_cpu#373: aux_hard71 = 1 -> ProcProv4 = 8
 c_order_vm_memory#374: aux_hard71 = 1 -> MemProv4 = 68400
 c_order_vm_storage#375: aux_hard71 = 1 -> StorageProv4 = 2000
 lc377: aux_hard72 = 1 <-> vmType4 = 12
 c_order_vm_price#377: aux_hard72 = 1 -> PriceProv4 = 1288
 c_order_vm_cpu#378: aux_hard72 = 1 -> ProcProv4 = 8
 c_order_vm_memory#379: aux_hard72 = 1 -> MemProv4 = 68400
 c_order_vm_storage#380: aux_hard72 = 1 -> StorageProv4 = 2000
 lc382: aux_hard73 = 1 <-> vmType4 = 13
 c_order_vm_price#382: aux_hard73 = 1 -> PriceProv4 = 402
 c_order_vm_cpu#383: aux_hard73 = 1 -> ProcProv4 = 4
 c_order_vm_memory#384: aux_hard73 = 1 -> MemProv4 = 15000
 c_order_vm_storage#385: aux_hard73 = 1 -> StorageProv4 = 2000
 lc387: aux_hard74 = 1 <-> vmType4 = 14
 c_order_vm_price#387: aux_hard74 = 1 -> PriceProv4 = 827
 c_order_vm_cpu#388: aux_hard74 = 1 -> ProcProv4 = 4
 c_order_vm_memory#389: aux_hard74 = 1 -> MemProv4 = 30500
 c_order_vm_storage#390: aux_hard74 = 1 -> StorageProv4 = 3000
 lc392: aux_hard75 = 1 <-> vmType4 = 15
 c_order_vm_price#392: aux_hard75 = 1 -> PriceProv4 = 379
 c_order_vm_cpu#393: aux_hard75 = 1 -> ProcProv4 = 4
 c_order_vm_memory#394: aux_hard75 = 1 -> MemProv4 = 30500
 c_order_vm_storage#395: aux_hard75 = 1 -> StorageProv4 = 1000
 lc397: aux_hard76 = 1 <-> vmType4 = 16
 c_order_vm_price#397: aux_hard76 = 1 -> PriceProv4 = 146
 c_order_vm_cpu#398: aux_hard76 = 1 -> ProcProv4 = 2
 c_order_vm_memory#399: aux_hard76 = 1 -> MemProv4 = 7500
 c_order_vm_storage#400: aux_hard76 = 1 -> StorageProv4 = 1000
 lc402: aux_hard77 = 1 <-> vmType4 = 17
 c_order_vm_price#402: aux_hard77 = 1 -> PriceProv4 = 128
 c_order_vm_cpu#403: aux_hard77 = 1 -> ProcProv4 = 2
 c_order_vm_memory#404: aux_hard77 = 1 -> MemProv4 = 3750
 c_order_vm_storage#405: aux_hard77 = 1 -> StorageProv4 = 2000
 lc407: aux_hard78 = 1 <-> vmType4 = 18
 c_order_vm_price#407: aux_hard78 = 1 -> PriceProv4 = 58
 c_order_vm_cpu#408: aux_hard78 = 1 -> ProcProv4 = 1
 c_order_vm_memory#409: aux_hard78 = 1 -> MemProv4 = 1700
 c_order_vm_storage#410: aux_hard78 = 1 -> StorageProv4 = 1000
 lc412: aux_hard79 = 1 <-> vmType4 = 19
 c_order_vm_price#412: aux_hard79 = 1 -> PriceProv4 = 93
 c_order_vm_cpu#413: aux_hard79 = 1 -> ProcProv4 = 1
 c_order_vm_memory#414: aux_hard79 = 1 -> MemProv4 = 3750
 c_order_vm_storage#415: aux_hard79 = 1 -> StorageProv4 = 1000
 lc417: aux_hard80 = 1 <-> vmType4 = 20
 c_order_vm_price#417: aux_hard80 = 1 -> PriceProv4 = 98
 c_order_vm_cpu#418: aux_hard80 = 1 -> ProcProv4 = 1
 c_order_vm_memory#419: aux_hard80 = 1 -> MemProv4 = 3750
 c_order_vm_storage#420: aux_hard80 = 1 -> StorageProv4 = 1000
 lc422: vm4 = 1 -> vmType4 >= 1
 lc423: aux_hard81 = 1 <-> vmType5 = 1
 c_order_vm_price#423: aux_hard81 = 1 -> PriceProv5 = 8403
 c_order_vm_cpu#424: aux_hard81 = 1 -> ProcProv5 = 64
 c_order_vm_memory#425: aux_hard81 = 1 -> MemProv5 = 976000
 c_order_vm_storage#426: aux_hard81 = 1 -> StorageProv5 = 1000
 lc428: aux_hard82 = 1 <-> vmType5 = 2
 c_order_vm_price#428: aux_hard82 = 1 -> PriceProv5 = 9152
 c_order_vm_cpu#429: aux_hard82 = 1 -> ProcProv5 = 64
 c_order_vm_memory#430: aux_hard82 = 1 -> MemProv5 = 488000
 c_order_vm_storage#431: aux_hard82 = 1 -> StorageProv5 = 8000
 lc433: aux_hard83 = 1 <-> vmType5 = 3
 c_order_vm_price#433: aux_hard83 = 1 -> PriceProv5 = 16000
 c_order_vm_cpu#434: aux_hard83 = 1 -> ProcProv5 = 64
 c_order_vm_memory#435: aux_hard83 = 1 -> MemProv5 = 1952
 c_order_vm_storage#436: aux_hard83 = 1 -> StorageProv5 = 1000
 lc438: aux_hard84 = 1 <-> vmType5 = 4
 c_order_vm_price#438: aux_hard84 = 1 -> PriceProv5 = 4105
 c_order_vm_cpu#439: aux_hard84 = 1 -> ProcProv5 = 32
 c_order_vm_memory#440: aux_hard84 = 1 -> MemProv5 = 244000
 c_order_vm_storage#441: aux_hard84 = 1 -> StorageProv5 = 2000
 lc443: aux_hard85 = 1 <-> vmType5 = 5
 c_order_vm_price#443: aux_hard85 = 1 -> PriceProv5 = 4576
 c_order_vm_cpu#444: aux_hard85 = 1 -> ProcProv5 = 32
 c_order_vm_memory#445: aux_hard85 = 1 -> MemProv5 = 244000
 c_order_vm_storage#446: aux_hard85 = 1 -> StorageProv5 = 4000
 lc448: aux_hard86 = 1 <-> vmType5 = 6
 c_order_vm_price#448: aux_hard86 = 1 -> PriceProv5 = 1373
 c_order_vm_cpu#449: aux_hard86 = 1 -> ProcProv5 = 16
 c_order_vm_memory#450: aux_hard86 = 1 -> MemProv5 = 122000
 c_order_vm_storage#451: aux_hard86 = 1 -> StorageProv5 = 2000
 lc453: aux_hard87 = 1 <-> vmType5 = 7
 c_order_vm_price#453: aux_hard87 = 1 -> PriceProv5 = 1430
 c_order_vm_cpu#454: aux_hard87 = 1 -> ProcProv5 = 16
 c_order_vm_memory#455: aux_hard87 = 1 -> MemProv5 = 30000
 c_order_vm_storage#456: aux_hard87 = 1 -> StorageProv5 = 2000
 lc458: aux_hard88 = 1 <-> vmType5 = 8
 c_order_vm_price#458: aux_hard88 = 1 -> PriceProv5 = 5400
 c_order_vm_cpu#459: aux_hard88 = 1 -> ProcProv5 = 17
 c_order_vm_memory#460: aux_hard88 = 1 -> MemProv5 = 117000
 c_order_vm_storage#461: aux_hard88 = 1 -> StorageProv5 = 24000
 lc463: aux_hard89 = 1 <-> vmType5 = 9
 c_order_vm_price#463: aux_hard89 = 1 -> PriceProv5 = 3079
 c_order_vm_cpu#464: aux_hard89 = 1 -> ProcProv5 = 16
 c_order_vm_memory#465: aux_hard89 = 1 -> MemProv5 = 122000
 c_order_vm_storage#466: aux_hard89 = 1 -> StorageProv5 = 1000
 lc468: aux_hard90 = 1 <-> vmType5 = 10
 c_order_vm_price#468: aux_hard90 = 1 -> PriceProv5 = 1470
 c_order_vm_cpu#469: aux_hard90 = 1 -> ProcProv5 = 8
 c_order_vm_memory#470: aux_hard90 = 1 -> MemProv5 = 61000
 c_order_vm_storage#471: aux_hard90 = 1 -> StorageProv5 = 6000
 lc473: aux_hard91 = 1 <-> vmType5 = 11
 c_order_vm_price#473: aux_hard91 = 1 -> PriceProv5 = 1301
 c_order_vm_cpu#474: aux_hard91 = 1 -> ProcProv5 = 8
 c_order_vm_memory#475: aux_hard91 = 1 -> MemProv5 = 68400
 c_order_vm_storage#476: aux_hard91 = 1 -> StorageProv5 = 2000
 lc478: aux_hard92 = 1 <-> vmType5 = 12
 c_order_vm_price#478: aux_hard92 = 1 -> PriceProv5 = 1288
 c_order_vm_cpu#479: aux_hard92 = 1 -> ProcProv5 = 8
 c_order_vm_memory#480: aux_hard92 = 1 -> MemProv5 = 68400
 c_order_vm_storage#481: aux_hard92 = 1 -> StorageProv5 = 2000
 lc483: aux_hard93 = 1 <-> vmType5 = 13
 c_order_vm_price#483: aux_hard93 = 1 -> PriceProv5 = 402
 c_order_vm_cpu#484: aux_hard93 = 1 -> ProcProv5 = 4
 c_order_vm_memory#485: aux_hard93 = 1 -> MemProv5 = 15000
 c_order_vm_storage#486: aux_hard93 = 1 -> StorageProv5 = 2000
 lc488: aux_hard94 = 1 <-> vmType5 = 14
 c_order_vm_price#488: aux_hard94 = 1 -> PriceProv5 = 827
 c_order_vm_cpu#489: aux_hard94 = 1 -> ProcProv5 = 4
 c_order_vm_memory#490: aux_hard94 = 1 -> MemProv5 = 30500
 c_order_vm_storage#491: aux_hard94 = 1 -> StorageProv5 = 3000
 lc493: aux_hard95 = 1 <-> vmType5 = 15
 c_order_vm_price#493: aux_hard95 = 1 -> PriceProv5 = 379
 c_order_vm_cpu#494: aux_hard95 = 1 -> ProcProv5 = 4
 c_order_vm_memory#495: aux_hard95 = 1 -> MemProv5 = 30500
 c_order_vm_storage#496: aux_hard95 = 1 -> StorageProv5 = 1000
 lc498: aux_hard96 = 1 <-> vmType5 = 16
 c_order_vm_price#498: aux_hard96 = 1 -> PriceProv5 = 146
 c_order_vm_cpu#499: aux_hard96 = 1 -> ProcProv5 = 2
 c_order_vm_memory#500: aux_hard96 = 1 -> MemProv5 = 7500
 c_order_vm_storage#501: aux_hard96 = 1 -> StorageProv5 = 1000
 lc503: aux_hard97 = 1 <-> vmType5 = 17
 c_order_vm_price#503: aux_hard97 = 1 -> PriceProv5 = 128
 c_order_vm_cpu#504: aux_hard97 = 1 -> ProcProv5 = 2
 c_order_vm_memory#505: aux_hard97 = 1 -> MemProv5 = 3750
 c_order_vm_storage#506: aux_hard97 = 1 -> StorageProv5 = 2000
 lc508: aux_hard98 = 1 <-> vmType5 = 18
 c_order_vm_price#508: aux_hard98 = 1 -> PriceProv5 = 58
 c_order_vm_cpu#509: aux_hard98 = 1 -> ProcProv5 = 1
 c_order_vm_memory#510: aux_hard98 = 1 -> MemProv5 = 1700
 c_order_vm_storage#511: aux_hard98 = 1 -> StorageProv5 = 1000
 lc513: aux_hard99 = 1 <-> vmType5 = 19
 c_order_vm_price#513: aux_hard99 = 1 -> PriceProv5 = 93
 c_order_vm_cpu#514: aux_hard99 = 1 -> ProcProv5 = 1
 c_order_vm_memory#515: aux_hard99 = 1 -> MemProv5 = 3750
 c_order_vm_storage#516: aux_hard99 = 1 -> StorageProv5 = 1000
 lc518: aux_hard100 = 1 <-> vmType5 = 20
 c_order_vm_price#518: aux_hard100 = 1 -> PriceProv5 = 98
 c_order_vm_cpu#519: aux_hard100 = 1 -> ProcProv5 = 1
 c_order_vm_memory#520: aux_hard100 = 1 -> MemProv5 = 3750
 c_order_vm_storage#521: aux_hard100 = 1 -> StorageProv5 = 1000
 lc523: vm5 = 1 -> vmType5 >= 1

Bounds
 0 <= vm1 <= 1
 0 <= vm2 <= 1
 0 <= vm3 <= 1
 0 <= vm4 <= 1
 0 <= vm5 <= 1
 0 <= C1_VM1 <= 1
 0 <= C1_VM2 <= 1
 0 <= C1_VM3 <= 1
 0 <= C1_VM4 <= 1
 0 <= C1_VM5 <= 1
 0 <= C2_VM1 <= 1
 0 <= C2_VM2 <= 1
 0 <= C2_VM3 <= 1
 0 <= C2_VM4 <= 1
 0 <= C2_VM5 <= 1
 0 <= C3_VM1 <= 1
 0 <= C3_VM2 <= 1
 0 <= C3_VM3 <= 1
 0 <= C3_VM4 <= 1
 0 <= C3_VM5 <= 1
 0 <= C4_VM1 <= 1
 0 <= C4_VM2 <= 1
 0 <= C4_VM3 <= 1
 0 <= C4_VM4 <= 1
 0 <= C4_VM5 <= 1
 0 <= C5_VM1 <= 1
 0 <= C5_VM2 <= 1
 0 <= C5_VM3 <= 1
 0 <= C5_VM4 <= 1
 0 <= C5_VM5 <= 1
       vmType1 <= 20
       vmType2 <= 20
       vmType3 <= 20
       vmType4 <= 20
       vmType5 <= 20
 1 <= ProcProv1 <= 64
 1 <= ProcProv2 <= 64
 1 <= ProcProv3 <= 64
 1 <= ProcProv4 <= 64
 1 <= ProcProv5 <= 64
 1700 <= MemProv1 <= 976000
 1700 <= MemProv2 <= 976000
 1700 <= MemProv3 <= 976000
 1700 <= MemProv4 <= 976000
 1700 <= MemProv5 <= 976000
 1000 <= StorageProv1 <= 24000
 1000 <= StorageProv2 <= 24000
 1000 <= StorageProv3 <= 24000
 1000 <= StorageProv4 <= 24000
 1000 <= StorageProv5 <= 24000
       PriceProv1 <= 16000
       PriceProv2 <= 16000
       PriceProv3 <= 16000
       PriceProv4 <= 16000
       PriceProv5 <= 16000
 0 <= order_VM0_combined <= 1
 0 <= order_VM1_combined <= 1
 0 <= order_VM2_combined <= 1
 0 <= order_VM3_combined <= 1
 0 <= aux_hard1 <= 1
 0 <= aux_hard2 <= 1
 0 <= aux_hard3 <= 1
 0 <= aux_hard4 <= 1
 0 <= aux_hard5 <= 1
 0 <= aux_hard6 <= 1
 0 <= aux_hard7 <= 1
 0 <= aux_hard8 <= 1
 0 <= aux_hard9 <= 1
 0 <= aux_hard10 <= 1
 0 <= aux_hard11 <= 1
 0 <= aux_hard12 <= 1
 0 <= aux_hard13 <= 1
 0 <= aux_hard14 <= 1
 0 <= aux_hard15 <= 1
 0 <= aux_hard16 <= 1
 0 <= aux_hard17 <= 1
 0 <= aux_hard18 <= 1
 0 <= aux_hard19 <= 1
 0 <= aux_hard20 <= 1
 0 <= aux_hard21 <= 1
 0 <= aux_hard22 <= 1
 0 <= aux_hard23 <= 1
 0 <= aux_hard24 <= 1
 0 <= aux_hard25 <= 1
 0 <= aux_hard26 <= 1
 0 <= aux_hard27 <= 1
 0 <= aux_hard28 <= 1
 0 <= aux_hard29 <= 1
 0 <= aux_hard30 <= 1
 0 <= aux_hard31 <= 1
 0 <= aux_hard32 <= 1
 0 <= aux_hard33 <= 1
 0 <= aux_hard34 <= 1
 0 <= aux_hard35 <= 1
 0 <= aux_hard36 <= 1
 0 <= aux_hard37 <= 1
 0 <= aux_hard38 <= 1
 0 <= aux_hard39 <= 1
 0 <= aux_hard40 <= 1
 0 <= aux_hard41 <= 1
 0 <= aux_hard42 <= 1
 0 <= aux_hard43 <= 1
 0 <= aux_hard44 <= 1
 0 <= aux_hard45 <= 1
 0 <= aux_hard46 <= 1
 0 <= aux_hard47 <= 1
 0 <= aux_hard48 <= 1
 0 <= aux_hard49 <= 1
 0 <= aux_hard50 <= 1
 0 <= aux_hard51 <= 1
 0 <= aux_hard52 <= 1
 0 <= aux_hard53 <= 1
 0 <= aux_hard54 <= 1
 0 <= aux_hard55 <= 1
 0 <= aux_hard56 <= 1
 0 <= aux_hard57 <= 1
 0 <= aux_hard58 <= 1
 0 <= aux_hard59 <= 1
 0 <= aux_hard60 <= 1
 0 <= aux_hard61 <= 1
 0 <= aux_hard62 <= 1
 0 <= aux_hard63 <= 1
 0 <= aux_hard64 <= 1
 0 <= aux_hard65 <= 1
 0 <= aux_hard66 <= 1
 0 <= aux_hard67 <= 1
 0 <= aux_hard68 <= 1
 0 <= aux_hard69 <= 1
 0 <= aux_hard70 <= 1
 0 <= aux_hard71 <= 1
 0 <= aux_hard72 <= 1
 0 <= aux_hard73 <= 1
 0 <= aux_hard74 <= 1
 0 <= aux_hard75 <= 1
 0 <= aux_hard76 <= 1
 0 <= aux_hard77 <= 1
 0 <= aux_hard78 <= 1
 0 <= aux_hard79 <= 1
 0 <= aux_hard80 <= 1
 0 <= aux_hard81 <= 1
 0 <= aux_hard82 <= 1
 0 <= aux_hard83 <= 1
 0 <= aux_hard84 <= 1
 0 <= aux_hard85 <= 1
 0 <= aux_hard86 <= 1
 0 <= aux_hard87 <= 1
 0 <= aux_hard88 <= 1
 0 <= aux_hard89 <= 1
 0 <= aux_hard90 <= 1
 0 <= aux_hard91 <= 1
 0 <= aux_hard92 <= 1
 0 <= aux_hard93 <= 1
 0 <= aux_hard94 <= 1
 0 <= aux_hard95 <= 1
 0 <= aux_hard96 <= 1
 0 <= aux_hard97 <= 1
 0 <= aux_hard98 <= 1
 0 <= aux_hard99 <= 1
 0 <= aux_hard100 <= 1

Binaries
 vm1 vm2 vm3 vm4 vm5 C1_VM1 C1_VM2 C1_VM3 C1_VM4 C1_VM5 C2_VM1 C2_VM2 C2_VM3
 C2_VM4 C2_VM5 C3_VM1 C3_VM2 C3_VM3 C3_VM4 C3_VM5 C4_VM1 C4_VM2 C4_VM3 C4_VM4
 C4_VM5 C5_VM1 C5_VM2 C5_VM3 C5_VM4 C5_VM5 order_VM0_combined order_VM1_combined
 order_VM2_combined order_VM3_combined aux_hard1 aux_hard2 aux_hard3 aux_hard4
 aux_hard5 aux_hard6 aux_hard7 aux_hard8 aux_hard9 aux_hard10 aux_hard11
 aux_hard12 aux_hard13 aux_hard14 aux_hard15 aux_hard16 aux_hard17 aux_hard18
 aux_hard19 aux_hard20 aux_hard21 aux_hard22 aux_hard23 aux_hard24 aux_hard25
 aux_hard26 aux_hard27 aux_hard28 aux_hard29 aux_hard30 aux_hard31 aux_hard32
 aux_hard33 aux_hard34 aux_hard35 aux_hard36 aux_hard37 aux_hard38 aux_hard39
 aux_hard40 aux_hard41 aux_hard42 aux_hard43 aux_hard44 aux_hard45 aux_hard46
 aux_hard47 aux_hard48 aux_hard49 aux_hard50 aux_hard51 aux_hard52 aux_hard53
 aux_hard54 aux_hard55 aux_hard56 aux_hard57 aux_hard58 aux_hard59 aux_hard60
 aux_hard61 aux_hard62 aux_hard63 aux_hard64 aux_hard65 aux_hard66 aux_hard67
 aux_hard68 aux_hard69 aux_hard70 aux_hard71 aux_hard72 aux_hard73 aux_hard74
 aux_hard75 aux_hard76 aux_hard77 aux_hard78 aux_hard79 aux_hard80 aux_hard81
 aux_hard82 aux_hard83 aux_hard84 aux_hard85 aux_hard86 aux_hard87 aux_hard88
 aux_hard89 aux_hard90 aux_hard91 aux_hard92 aux_hard93 aux_hard94 aux_hard95
 aux_hard96 aux_hard97 aux_hard98 aux_hard99 aux_hard100

Generals
 vmType1 vmType2 vmType3 vmType4 vmType5 ProcProv1 ProcProv2 ProcProv3 ProcProv4
 ProcProv5 MemProv1 MemProv2 MemProv3 MemProv4 MemProv5 StorageProv1
 StorageProv2 StorageProv3 StorageProv4 StorageProv5 PriceProv1 PriceProv2
 PriceProv3 PriceProv4 PriceProv5
End
